100
100
100
100
100
98
97
96
95
94
92
91
91
90
90
90
88
87
87
85
84
83
81
78
76
74
71
71
70
68
68
66
66
65
64
63
63
62
62
61
59
59
59
59
59
57
57
56
54
53
52
51
50
50
49
46
45
43
41
41
40
40
40
39
36
35
34
33
33
32
32
32
30
30
29
29
29
28
27
27
27
23
21
21
20
20
19
19
17
15
15
15
11
9
6
5
5
5
4
3
2
1
